78 78
48 20
67 38
72 10
2 27
65 18
62 6
50 11
6 31
28 6
55 11
21 23
32 2
68 24
78 24
71 31
52 4
7 36
61 32
64 21
59 22
1 21
33 25
12 12
73 8
20 3
63 15
76 3
42 16
57 32
31 26
35 37
11 7
45 14
24 36
56 10
34 16
77 12
58 27
23 13
4 38
46 30
44 33
37 13
9 29
38 8
39 15
10 20
26 19
13 18
69 30
30 22
5 9
27 26
19 2
51 39
75 5
66 9
74 7
25 23
22 25
54 5
47 28
40 17
17 34
41 35
70 34
49 14
43 29
53 28
14 35
18 1
36 37
8 19
3 1
16 17
60 39
29 4
15 33
